
(set-option :produce-models true)
(set-option :inline-size-limit 10000)

(declare-const var0 String)

(push 1)
(assert (str.in.re var0 (re.* (re.range "\x01" "\xff"))))
(assert (str.in.re var0 (re.++ (re.++ re.begin-anchor (re.++ (re.union (re.++ (str.to.re "") ((_ re.capture 1) (re.union (re.* ((_ re.capture 2) (re.++ ((_ re.capture 3) (re.++ (str.to.re ".") (str.to.re "."))) (str.to.re "/")))) ((_ re.capture 4) (str.to.re "/"))))) (str.to.re "")) (re.++ (re.* ((_ re.capture 5) (re.++ ((_ re.capture 6) (re.* (re.union (re.range "a" "z") (re.union (re.range "A" "Z") (re.range "0" "9"))))) (str.to.re "/")))) (re.++ (re.+ ((_ re.capture 7) (re.* (re.union (re.range "a" "z") (re.union (re.range "A" "Z") (re.range "0" "9")))))) (re.+ ((_ re.capture 8) (re.union (re.union (str.to.re ".") (re.union (str.to.re "j") (re.union (str.to.re "p") (str.to.re "g")))) (re.union (str.to.re ".") (re.union (str.to.re "g") (re.union (str.to.re "i") (str.to.re "f"))))))))))) re.end-anchor)))	; match!==null
(assert (not (str.in.re ((_ str.extract 1) var0 (re.++ (re.++ re.begin-anchor (re.++ (re.union (re.++ (str.to.re "") ((_ re.capture 1) (re.union (re.* ((_ re.capture 2) (re.++ ((_ re.capture 3) (re.++ (str.to.re ".") (str.to.re "."))) (str.to.re "/")))) ((_ re.capture 4) (str.to.re "/"))))) (str.to.re "")) (re.++ (re.* ((_ re.capture 5) (re.++ ((_ re.capture 6) (re.* (re.union (re.range "a" "z") (re.union (re.range "A" "Z") (re.range "0" "9"))))) (str.to.re "/")))) (re.++ (re.+ ((_ re.capture 7) (re.* (re.union (re.range "a" "z") (re.union (re.range "A" "Z") (re.range "0" "9")))))) (re.+ ((_ re.capture 8) (re.union (re.union (str.to.re ".") (re.union (str.to.re "j") (re.union (str.to.re "p") (str.to.re "g")))) (re.union (str.to.re ".") (re.union (str.to.re "g") (re.union (str.to.re "i") (str.to.re "f"))))))))))) re.end-anchor)) (str.to.re "\x00"))))
;match[1]!==null
(assert (str.in.re ((_ str.extract 1) var0 (re.++ (re.++ re.begin-anchor (re.++ (re.union (re.++ (str.to.re "") ((_ re.capture 1) (re.union (re.* ((_ re.capture 2) (re.++ ((_ re.capture 3) (re.++ (str.to.re ".") (str.to.re "."))) (str.to.re "/")))) ((_ re.capture 4) (str.to.re "/"))))) (str.to.re "")) (re.++ (re.* ((_ re.capture 5) (re.++ ((_ re.capture 6) (re.* (re.union (re.range "a" "z") (re.union (re.range "A" "Z") (re.range "0" "9"))))) (str.to.re "/")))) (re.++ (re.+ ((_ re.capture 7) (re.* (re.union (re.range "a" "z") (re.union (re.range "A" "Z") (re.range "0" "9")))))) (re.+ ((_ re.capture 8) (re.union (re.union (str.to.re ".") (re.union (str.to.re "j") (re.union (str.to.re "p") (str.to.re "g")))) (re.union (str.to.re ".") (re.union (str.to.re "g") (re.union (str.to.re "i") (str.to.re "f"))))))))))) re.end-anchor)) (re.++ re.all(re.+ (re.range "a" "z")) re.all) ))
;/[a-z]+/.test(match[1]) == true
(check-sat)
(get-model)
(pop 1)
(push 1)
(assert (str.in.re var0 (re.* (re.range "\x01" "\xff"))))
(assert (str.in.re var0 (re.++ (re.++ re.begin-anchor (re.++ (re.union (re.++ (str.to.re "") ((_ re.capture 1) (re.union (re.* ((_ re.capture 2) (re.++ ((_ re.capture 3) (re.++ (str.to.re ".") (str.to.re "."))) (str.to.re "/")))) ((_ re.capture 4) (str.to.re "/"))))) (str.to.re "")) (re.++ (re.* ((_ re.capture 5) (re.++ ((_ re.capture 6) (re.* (re.union (re.range "a" "z") (re.union (re.range "A" "Z") (re.range "0" "9"))))) (str.to.re "/")))) (re.++ (re.+ ((_ re.capture 7) (re.* (re.union (re.range "a" "z") (re.union (re.range "A" "Z") (re.range "0" "9")))))) (re.+ ((_ re.capture 8) (re.union (re.union (str.to.re ".") (re.union (str.to.re "j") (re.union (str.to.re "p") (str.to.re "g")))) (re.union (str.to.re ".") (re.union (str.to.re "g") (re.union (str.to.re "i") (str.to.re "f"))))))))))) re.end-anchor)))	; match!==null
(assert (not (str.in.re ((_ str.extract 1) var0 (re.++ (re.++ re.begin-anchor (re.++ (re.union (re.++ (str.to.re "") ((_ re.capture 1) (re.union (re.* ((_ re.capture 2) (re.++ ((_ re.capture 3) (re.++ (str.to.re ".") (str.to.re "."))) (str.to.re "/")))) ((_ re.capture 4) (str.to.re "/"))))) (str.to.re "")) (re.++ (re.* ((_ re.capture 5) (re.++ ((_ re.capture 6) (re.* (re.union (re.range "a" "z") (re.union (re.range "A" "Z") (re.range "0" "9"))))) (str.to.re "/")))) (re.++ (re.+ ((_ re.capture 7) (re.* (re.union (re.range "a" "z") (re.union (re.range "A" "Z") (re.range "0" "9")))))) (re.+ ((_ re.capture 8) (re.union (re.union (str.to.re ".") (re.union (str.to.re "j") (re.union (str.to.re "p") (str.to.re "g")))) (re.union (str.to.re ".") (re.union (str.to.re "g") (re.union (str.to.re "i") (str.to.re "f"))))))))))) re.end-anchor)) (str.to.re "\x00"))))	
;match[1]!==null
(assert (not (str.in.re ((_ str.extract 1) var0 (re.++ (re.++ re.begin-anchor (re.++ (re.union (re.++ (str.to.re "") ((_ re.capture 1) (re.union (re.* ((_ re.capture 2) (re.++ ((_ re.capture 3) (re.++ (str.to.re ".") (str.to.re "."))) (str.to.re "/")))) ((_ re.capture 4) (str.to.re "/"))))) (str.to.re "")) (re.++ (re.* ((_ re.capture 5) (re.++ ((_ re.capture 6) (re.* (re.union (re.range "a" "z") (re.union (re.range "A" "Z") (re.range "0" "9"))))) (str.to.re "/")))) (re.++ (re.+ ((_ re.capture 7) (re.* (re.union (re.range "a" "z") (re.union (re.range "A" "Z") (re.range "0" "9")))))) (re.+ ((_ re.capture 8) (re.union (re.union (str.to.re ".") (re.union (str.to.re "j") (re.union (str.to.re "p") (str.to.re "g")))) (re.union (str.to.re ".") (re.union (str.to.re "g") (re.union (str.to.re "i") (str.to.re "f"))))))))))) re.end-anchor)) (re.++ re.all(re.+ (re.range "a" "z")) re.all) )))
;/[a-z]+/.test(match[1]) == false	
(check-sat)
(get-model)
(pop 1)
(push 1)
(assert (str.in.re var0 (re.* (re.range "\x01" "\xff"))))
(assert (str.in.re var0 (re.++ (re.++ re.begin-anchor (re.++ (re.union (re.++ (str.to.re "") ((_ re.capture 1) (re.union (re.* ((_ re.capture 2) (re.++ ((_ re.capture 3) (re.++ (str.to.re ".") (str.to.re "."))) (str.to.re "/")))) ((_ re.capture 4) (str.to.re "/"))))) (str.to.re "")) (re.++ (re.* ((_ re.capture 5) (re.++ ((_ re.capture 6) (re.* (re.union (re.range "a" "z") (re.union (re.range "A" "Z") (re.range "0" "9"))))) (str.to.re "/")))) (re.++ (re.+ ((_ re.capture 7) (re.* (re.union (re.range "a" "z") (re.union (re.range "A" "Z") (re.range "0" "9")))))) (re.+ ((_ re.capture 8) (re.union (re.union (str.to.re ".") (re.union (str.to.re "j") (re.union (str.to.re "p") (str.to.re "g")))) (re.union (str.to.re ".") (re.union (str.to.re "g") (re.union (str.to.re "i") (str.to.re "f"))))))))))) re.end-anchor)))	; match!==null
(assert (str.in.re ((_ str.extract 1) var0 (re.++ (re.++ re.begin-anchor (re.++ (re.union (re.++ (str.to.re "") ((_ re.capture 1) (re.union (re.* ((_ re.capture 2) (re.++ ((_ re.capture 3) (re.++ (str.to.re ".") (str.to.re "."))) (str.to.re "/")))) ((_ re.capture 4) (str.to.re "/"))))) (str.to.re "")) (re.++ (re.* ((_ re.capture 5) (re.++ ((_ re.capture 6) (re.* (re.union (re.range "a" "z") (re.union (re.range "A" "Z") (re.range "0" "9"))))) (str.to.re "/")))) (re.++ (re.+ ((_ re.capture 7) (re.* (re.union (re.range "a" "z") (re.union (re.range "A" "Z") (re.range "0" "9")))))) (re.+ ((_ re.capture 8) (re.union (re.union (str.to.re ".") (re.union (str.to.re "j") (re.union (str.to.re "p") (str.to.re "g")))) (re.union (str.to.re ".") (re.union (str.to.re "g") (re.union (str.to.re "i") (str.to.re "f"))))))))))) re.end-anchor)) (str.to.re "\x00")))
;match[1]==null
(check-sat)
(get-model)
(pop 1)
(push 1)
(assert (str.in.re var0 (re.* (re.range "\x01" "\xff"))))
(assert (not (str.in.re var0 (re.++ (re.++ re.begin-anchor (re.++ (re.union (re.++ (str.to.re "") ((_ re.capture 1) (re.union (re.* ((_ re.capture 2) (re.++ ((_ re.capture 3) (re.++ (str.to.re ".") (str.to.re "."))) (str.to.re "/")))) ((_ re.capture 4) (str.to.re "/"))))) (str.to.re "")) (re.++ (re.* ((_ re.capture 5) (re.++ ((_ re.capture 6) (re.* (re.union (re.range "a" "z") (re.union (re.range "A" "Z") (re.range "0" "9"))))) (str.to.re "/")))) (re.++ (re.+ ((_ re.capture 7) (re.* (re.union (re.range "a" "z") (re.union (re.range "A" "Z") (re.range "0" "9")))))) (re.+ ((_ re.capture 8) (re.union (re.union (str.to.re ".") (re.union (str.to.re "j") (re.union (str.to.re "p") (str.to.re "g")))) (re.union (str.to.re ".") (re.union (str.to.re "g") (re.union (str.to.re "i") (str.to.re "f"))))))))))) re.end-anchor))))	; match == null
(check-sat)
(get-model)
(pop 1)
(exit)
